set I := 0 1 2 3 4 5 6 7 8 9 10 11 12 13 14 15 16 17 18 19 20 21 22 23 24 25 26 27 28 29;

param cap := 150;

param: size:=
    0 100
    1 98
    2 94
    3 91
    4 90
    5 87
    6 84
    7 81
    8 79
    9 77
    10 74
    11 70
    12 67
    13 65
    14 63
    15 60
    16 58
    17 56
    18 54
    19 51
    20 49
    21 45
    22 42
    23 39
    24 37
    25 35
    26 32
    27 28
    28 26
    29 22;
